\* Deterministic_Problem *\
Maximize
OBJ: - 308 s_hour_0_0_00 - 226 s_hour_0_0_01 - 226 s_hour_0_0_02
 - 345 s_hour_0_0_03 - 384 s_hour_0_0_04 - 314 s_hour_0_0_05
 - 248 s_hour_0_0_06 - 254 s_hour_0_0_07 - 281 s_hour_0_0_08
 - 253 s_hour_0_0_09 - 339 s_hour_0_0_10 - 334 s_hour_0_0_11
 - 289 s_hour_0_0_12 - 356 s_hour_0_0_13 - 301 s_hour_0_0_14
 - 255 s_hour_0_0_15 - 204 s_hour_0_0_16 - 300 s_hour_0_0_17
 - 420 s_hour_0_0_18 - 261 s_hour_0_0_19 - 297 s_hour_0_0_20
 - 335 s_hour_0_0_21 - 297 s_hour_0_0_22 - 1068 s_hour_0_1_00
 - 1142 s_hour_0_1_01 - 1220 s_hour_0_1_02 - 1318 s_hour_0_1_03
 - 1264 s_hour_0_1_04 - 1136 s_hour_0_1_05 - 1058 s_hour_0_1_06
 - 1014 s_hour_0_1_07 - 1240 s_hour_0_1_08 - 1174 s_hour_0_1_09
 - 1256 s_hour_0_1_10 - 1380 s_hour_0_1_11 - 1180 s_hour_0_1_12
 - 1222 s_hour_0_1_13 - 1010 s_hour_0_1_14 - 1110 s_hour_0_1_15
 - 1248 s_hour_0_1_16 - 1122 s_hour_0_1_17 - 1434 s_hour_0_1_18
 - 1192 s_hour_0_1_19 - 1188 s_hour_0_1_20 - 723 s_hour_1_2_00
 - 766 s_hour_1_2_01 - 729 s_hour_1_2_02 - 788 s_hour_1_2_03
 - 757 s_hour_1_2_04 - 724 s_hour_1_2_05 - 626 s_hour_1_2_06
 - 749 s_hour_1_2_07 - 712 s_hour_1_2_08 - 784 s_hour_1_2_09
 - 787 s_hour_1_2_10 - 832 s_hour_1_2_11 - 703 s_hour_1_2_12
 - 702 s_hour_1_2_13 - 714 s_hour_1_2_14 - 766 s_hour_1_2_15
 - 674 s_hour_1_2_16 - 808 s_hour_1_2_17 - 805 s_hour_1_2_18
 - 805 s_hour_1_2_19 - 756 s_hour_1_3_00 - 764 s_hour_1_3_01
 - 830 s_hour_1_3_02 - 1080 s_hour_1_3_03 - 1006 s_hour_1_3_04
 - 886 s_hour_1_3_05 - 746 s_hour_1_3_06 - 820 s_hour_1_3_07
 - 756 s_hour_1_3_08 - 990 s_hour_1_3_09 - 862 s_hour_1_3_10
 - 1062 s_hour_1_3_11 - 896 s_hour_1_3_12 - 996 s_hour_1_3_13
 - 828 s_hour_1_3_14 - 692 s_hour_1_3_15 - 826 s_hour_1_3_16
 - 1022 s_hour_1_3_17 - 940 s_hour_1_3_18 - 1016 s_hour_1_3_19
 - 770 s_hour_1_3_20 - 1088 s_hour_1_3_21 - 152 s_hour_1_4_00
 - 156 s_hour_1_4_01 - 70 s_hour_1_4_02 - 156 s_hour_1_4_03
 - 189 s_hour_1_4_04 - 195 s_hour_1_4_05 - 119 s_hour_1_4_06
 - 129 s_hour_1_4_07 - 125 s_hour_1_4_08 - 156 s_hour_1_4_09
 - 97 s_hour_1_4_10 - 242 s_hour_1_4_11 - 92 s_hour_1_4_12 - 197 s_hour_1_4_13
 - 159 s_hour_1_4_14 - 142 s_hour_1_4_15 - 113 s_hour_1_4_16
 - 91 s_hour_1_4_17 - 209 s_hour_1_4_18 - 211 s_hour_1_4_19 - 50 s_hour_1_4_20
 - 247 s_hour_1_4_21 - 88 s_hour_1_4_22 - 209 s_hour_1_4_23
 - 723 s_hour_2_2_00 - 766 s_hour_2_2_01 - 729 s_hour_2_2_02
 - 788 s_hour_2_2_03 - 757 s_hour_2_2_04 - 724 s_hour_2_2_05
 - 626 s_hour_2_2_06 - 749 s_hour_2_2_07 - 712 s_hour_2_2_08
 - 784 s_hour_2_2_09 - 787 s_hour_2_2_10 - 832 s_hour_2_2_11
 - 703 s_hour_2_2_12 - 702 s_hour_2_2_13 - 714 s_hour_2_2_14
 - 766 s_hour_2_2_15 - 674 s_hour_2_2_16 - 808 s_hour_2_2_17
 - 805 s_hour_2_2_18 - 805 s_hour_2_2_19 - 756 s_hour_2_3_00
 - 764 s_hour_2_3_01 - 830 s_hour_2_3_02 - 1080 s_hour_2_3_03
 - 1006 s_hour_2_3_04 - 886 s_hour_2_3_05 - 746 s_hour_2_3_06
 - 820 s_hour_2_3_07 - 756 s_hour_2_3_08 - 990 s_hour_2_3_09
 - 862 s_hour_2_3_10 - 1062 s_hour_2_3_11 - 896 s_hour_2_3_12
 - 996 s_hour_2_3_13 - 828 s_hour_2_3_14 - 692 s_hour_2_3_15
 - 826 s_hour_2_3_16 - 1022 s_hour_2_3_17 - 940 s_hour_2_3_18
 - 1016 s_hour_2_3_19 - 770 s_hour_2_3_20 - 1088 s_hour_2_3_21
 - 152 s_hour_2_4_00 - 156 s_hour_2_4_01 - 70 s_hour_2_4_02
 - 156 s_hour_2_4_03 - 189 s_hour_2_4_04 - 195 s_hour_2_4_05
 - 119 s_hour_2_4_06 - 129 s_hour_2_4_07 - 125 s_hour_2_4_08
 - 156 s_hour_2_4_09 - 97 s_hour_2_4_10 - 242 s_hour_2_4_11 - 92 s_hour_2_4_12
 - 197 s_hour_2_4_13 - 159 s_hour_2_4_14 - 142 s_hour_2_4_15
 - 113 s_hour_2_4_16 - 91 s_hour_2_4_17 - 209 s_hour_2_4_18
 - 211 s_hour_2_4_19 - 50 s_hour_2_4_20 - 247 s_hour_2_4_21 - 88 s_hour_2_4_22
 - 209 s_hour_2_4_23 + 1000 x_(0,_0) + 2000 x_(0,_1) + 2500 x_(1,_2)
 + 1500 x_(1,_3) + 2500 x_(2,_2) + 1500 x_(2,_3)
Subject To
Big_M_constraint_1_for_orders_0_0_1: - 1000 p_(0,_0,_1) + x_(0,_0) + x_(0,_1)
 <= 1
Big_M_constraint_1_for_orders_0_1_0: - 1000 p_(0,_1,_0) + x_(0,_0) + x_(0,_1)
 <= 1
Big_M_constraint_1_for_orders_1_2_3: - 1000 p_(1,_2,_3) + x_(1,_2) + x_(1,_3)
 <= 1
Big_M_constraint_1_for_orders_1_2_4: - 1000 p_(1,_2,_4) + x_(1,_2) + x_(1,_4)
 <= 1
Big_M_constraint_1_for_orders_1_3_2: - 1000 p_(1,_3,_2) + x_(1,_2) + x_(1,_3)
 <= 1
Big_M_constraint_1_for_orders_1_3_4: - 1000 p_(1,_3,_4) + x_(1,_3) + x_(1,_4)
 <= 1
Big_M_constraint_1_for_orders_1_4_2: - 1000 p_(1,_4,_2) + x_(1,_2) + x_(1,_4)
 <= 1
Big_M_constraint_1_for_orders_1_4_3: - 1000 p_(1,_4,_3) + x_(1,_3) + x_(1,_4)
 <= 1
Big_M_constraint_1_for_orders_2_2_3: - 1000 p_(2,_2,_3) + x_(2,_2) + x_(2,_3)
 <= 1
Big_M_constraint_1_for_orders_2_2_4: - 1000 p_(2,_2,_4) + x_(2,_2) + x_(2,_4)
 <= 1
Big_M_constraint_1_for_orders_2_3_2: - 1000 p_(2,_3,_2) + x_(2,_2) + x_(2,_3)
 <= 1
Big_M_constraint_1_for_orders_2_3_4: - 1000 p_(2,_3,_4) + x_(2,_3) + x_(2,_4)
 <= 1
Big_M_constraint_1_for_orders_2_4_2: - 1000 p_(2,_4,_2) + x_(2,_2) + x_(2,_4)
 <= 1
Big_M_constraint_1_for_orders_2_4_3: - 1000 p_(2,_4,_3) + x_(2,_3) + x_(2,_4)
 <= 1
Big_M_constraint_2_for_orders_0_0_1: 1000 p_(0,_0,_1) - x_(0,_0) - x_(0,_1)
 <= 998
Big_M_constraint_2_for_orders_0_1_0: 1000 p_(0,_1,_0) - x_(0,_0) - x_(0,_1)
 <= 998
Big_M_constraint_2_for_orders_1_2_3: 1000 p_(1,_2,_3) - x_(1,_2) - x_(1,_3)
 <= 998
Big_M_constraint_2_for_orders_1_2_4: 1000 p_(1,_2,_4) - x_(1,_2) - x_(1,_4)
 <= 998
Big_M_constraint_2_for_orders_1_3_2: 1000 p_(1,_3,_2) - x_(1,_2) - x_(1,_3)
 <= 998
Big_M_constraint_2_for_orders_1_3_4: 1000 p_(1,_3,_4) - x_(1,_3) - x_(1,_4)
 <= 998
Big_M_constraint_2_for_orders_1_4_2: 1000 p_(1,_4,_2) - x_(1,_2) - x_(1,_4)
 <= 998
Big_M_constraint_2_for_orders_1_4_3: 1000 p_(1,_4,_3) - x_(1,_3) - x_(1,_4)
 <= 998
Big_M_constraint_2_for_orders_2_2_3: 1000 p_(2,_2,_3) - x_(2,_2) - x_(2,_3)
 <= 998
Big_M_constraint_2_for_orders_2_2_4: 1000 p_(2,_2,_4) - x_(2,_2) - x_(2,_4)
 <= 998
Big_M_constraint_2_for_orders_2_3_2: 1000 p_(2,_3,_2) - x_(2,_2) - x_(2,_3)
 <= 998
Big_M_constraint_2_for_orders_2_3_4: 1000 p_(2,_3,_4) - x_(2,_3) - x_(2,_4)
 <= 998
Big_M_constraint_2_for_orders_2_4_2: 1000 p_(2,_4,_2) - x_(2,_2) - x_(2,_4)
 <= 998
Big_M_constraint_2_for_orders_2_4_3: 1000 p_(2,_4,_3) - x_(2,_3) - x_(2,_4)
 <= 998
Big_M_constraint_3_for_orders_0_0_1: 1000 p_(0,_0,_1) + 1000 q_(0,_0,_1)
 + startingtime_0 - startingtime_1 <= 1998
Big_M_constraint_3_for_orders_0_1_0: 1000 p_(0,_1,_0) + 1000 q_(0,_1,_0)
 - startingtime_0 + startingtime_1 <= 1996
Big_M_constraint_3_for_orders_1_2_3: 1000 p_(1,_2,_3) + 1000 q_(1,_2,_3)
 + startingtime_2 - startingtime_3 <= 1995
Big_M_constraint_3_for_orders_1_2_4: 1000 p_(1,_2,_4) + 1000 q_(1,_2,_4)
 + startingtime_2 - startingtime_4 <= 1995
Big_M_constraint_3_for_orders_1_3_2: 1000 p_(1,_3,_2) + 1000 q_(1,_3,_2)
 - startingtime_2 + startingtime_3 <= 1997
Big_M_constraint_3_for_orders_1_3_4: 1000 p_(1,_3,_4) + 1000 q_(1,_3,_4)
 + startingtime_3 - startingtime_4 <= 1997
Big_M_constraint_3_for_orders_1_4_2: 1000 p_(1,_4,_2) + 1000 q_(1,_4,_2)
 - startingtime_2 + startingtime_4 <= 1999
Big_M_constraint_3_for_orders_1_4_3: 1000 p_(1,_4,_3) + 1000 q_(1,_4,_3)
 - startingtime_3 + startingtime_4 <= 1999
Big_M_constraint_3_for_orders_2_2_3: 1000 p_(2,_2,_3) + 1000 q_(2,_2,_3)
 + startingtime_2 - startingtime_3 <= 1995
Big_M_constraint_3_for_orders_2_2_4: 1000 p_(2,_2,_4) + 1000 q_(2,_2,_4)
 + startingtime_2 - startingtime_4 <= 1995
Big_M_constraint_3_for_orders_2_3_2: 1000 p_(2,_3,_2) + 1000 q_(2,_3,_2)
 - startingtime_2 + startingtime_3 <= 1997
Big_M_constraint_3_for_orders_2_3_4: 1000 p_(2,_3,_4) + 1000 q_(2,_3,_4)
 + startingtime_3 - startingtime_4 <= 1997
Big_M_constraint_3_for_orders_2_4_2: 1000 p_(2,_4,_2) + 1000 q_(2,_4,_2)
 - startingtime_2 + startingtime_4 <= 1999
Big_M_constraint_3_for_orders_2_4_3: 1000 p_(2,_4,_3) + 1000 q_(2,_4,_3)
 - startingtime_3 + startingtime_4 <= 1999
Big_M_constraint_4_for_orders_0_0_1: 1000 p_(0,_0,_1) - 1000 q_(0,_0,_1)
 - startingtime_0 + startingtime_1 <= 996
Big_M_constraint_4_for_orders_0_1_0: 1000 p_(0,_1,_0) - 1000 q_(0,_1,_0)
 + startingtime_0 - startingtime_1 <= 998
Big_M_constraint_4_for_orders_1_2_3: 1000 p_(1,_2,_3) - 1000 q_(1,_2,_3)
 - startingtime_2 + startingtime_3 <= 997
Big_M_constraint_4_for_orders_1_2_4: 1000 p_(1,_2,_4) - 1000 q_(1,_2,_4)
 - startingtime_2 + startingtime_4 <= 999
Big_M_constraint_4_for_orders_1_3_2: 1000 p_(1,_3,_2) - 1000 q_(1,_3,_2)
 + startingtime_2 - startingtime_3 <= 995
Big_M_constraint_4_for_orders_1_3_4: 1000 p_(1,_3,_4) - 1000 q_(1,_3,_4)
 - startingtime_3 + startingtime_4 <= 999
Big_M_constraint_4_for_orders_1_4_2: 1000 p_(1,_4,_2) - 1000 q_(1,_4,_2)
 + startingtime_2 - startingtime_4 <= 995
Big_M_constraint_4_for_orders_1_4_3: 1000 p_(1,_4,_3) - 1000 q_(1,_4,_3)
 + startingtime_3 - startingtime_4 <= 997
Big_M_constraint_4_for_orders_2_2_3: 1000 p_(2,_2,_3) - 1000 q_(2,_2,_3)
 - startingtime_2 + startingtime_3 <= 997
Big_M_constraint_4_for_orders_2_2_4: 1000 p_(2,_2,_4) - 1000 q_(2,_2,_4)
 - startingtime_2 + startingtime_4 <= 999
Big_M_constraint_4_for_orders_2_3_2: 1000 p_(2,_3,_2) - 1000 q_(2,_3,_2)
 + startingtime_2 - startingtime_3 <= 995
Big_M_constraint_4_for_orders_2_3_4: 1000 p_(2,_3,_4) - 1000 q_(2,_3,_4)
 - startingtime_3 + startingtime_4 <= 999
Big_M_constraint_4_for_orders_2_4_2: 1000 p_(2,_4,_2) - 1000 q_(2,_4,_2)
 + startingtime_2 - startingtime_4 <= 995
Big_M_constraint_4_for_orders_2_4_3: 1000 p_(2,_4,_3) - 1000 q_(2,_4,_3)
 + startingtime_3 - startingtime_4 <= 997
calculate_start_time_for_order_0: - s_hour_0_0_01 - 2 s_hour_0_0_02
 - 3 s_hour_0_0_03 - 4 s_hour_0_0_04 - 5 s_hour_0_0_05 - 6 s_hour_0_0_06
 - 7 s_hour_0_0_07 - 8 s_hour_0_0_08 - 9 s_hour_0_0_09 - 10 s_hour_0_0_10
 - 11 s_hour_0_0_11 - 12 s_hour_0_0_12 - 13 s_hour_0_0_13 - 14 s_hour_0_0_14
 - 15 s_hour_0_0_15 - 16 s_hour_0_0_16 - 17 s_hour_0_0_17 - 18 s_hour_0_0_18
 - 19 s_hour_0_0_19 - 20 s_hour_0_0_20 - 21 s_hour_0_0_21 - 22 s_hour_0_0_22
 + startingtime_0 = 0
calculate_start_time_for_order_1: - s_hour_0_1_01 - 2 s_hour_0_1_02
 - 3 s_hour_0_1_03 - 4 s_hour_0_1_04 - 5 s_hour_0_1_05 - 6 s_hour_0_1_06
 - 7 s_hour_0_1_07 - 8 s_hour_0_1_08 - 9 s_hour_0_1_09 - 10 s_hour_0_1_10
 - 11 s_hour_0_1_11 - 12 s_hour_0_1_12 - 13 s_hour_0_1_13 - 14 s_hour_0_1_14
 - 15 s_hour_0_1_15 - 16 s_hour_0_1_16 - 17 s_hour_0_1_17 - 18 s_hour_0_1_18
 - 19 s_hour_0_1_19 - 20 s_hour_0_1_20 + startingtime_1 = 0
calculate_start_time_for_order_2: - s_hour_1_2_01 - 2 s_hour_1_2_02
 - 3 s_hour_1_2_03 - 4 s_hour_1_2_04 - 5 s_hour_1_2_05 - 6 s_hour_1_2_06
 - 7 s_hour_1_2_07 - 8 s_hour_1_2_08 - 9 s_hour_1_2_09 - 10 s_hour_1_2_10
 - 11 s_hour_1_2_11 - 12 s_hour_1_2_12 - 13 s_hour_1_2_13 - 14 s_hour_1_2_14
 - 15 s_hour_1_2_15 - 16 s_hour_1_2_16 - 17 s_hour_1_2_17 - 18 s_hour_1_2_18
 - 19 s_hour_1_2_19 - s_hour_2_2_01 - 2 s_hour_2_2_02 - 3 s_hour_2_2_03
 - 4 s_hour_2_2_04 - 5 s_hour_2_2_05 - 6 s_hour_2_2_06 - 7 s_hour_2_2_07
 - 8 s_hour_2_2_08 - 9 s_hour_2_2_09 - 10 s_hour_2_2_10 - 11 s_hour_2_2_11
 - 12 s_hour_2_2_12 - 13 s_hour_2_2_13 - 14 s_hour_2_2_14 - 15 s_hour_2_2_15
 - 16 s_hour_2_2_16 - 17 s_hour_2_2_17 - 18 s_hour_2_2_18 - 19 s_hour_2_2_19
 + startingtime_2 = 0
calculate_start_time_for_order_3: - s_hour_1_3_01 - 2 s_hour_1_3_02
 - 3 s_hour_1_3_03 - 4 s_hour_1_3_04 - 5 s_hour_1_3_05 - 6 s_hour_1_3_06
 - 7 s_hour_1_3_07 - 8 s_hour_1_3_08 - 9 s_hour_1_3_09 - 10 s_hour_1_3_10
 - 11 s_hour_1_3_11 - 12 s_hour_1_3_12 - 13 s_hour_1_3_13 - 14 s_hour_1_3_14
 - 15 s_hour_1_3_15 - 16 s_hour_1_3_16 - 17 s_hour_1_3_17 - 18 s_hour_1_3_18
 - 19 s_hour_1_3_19 - 20 s_hour_1_3_20 - 21 s_hour_1_3_21 - s_hour_2_3_01
 - 2 s_hour_2_3_02 - 3 s_hour_2_3_03 - 4 s_hour_2_3_04 - 5 s_hour_2_3_05
 - 6 s_hour_2_3_06 - 7 s_hour_2_3_07 - 8 s_hour_2_3_08 - 9 s_hour_2_3_09
 - 10 s_hour_2_3_10 - 11 s_hour_2_3_11 - 12 s_hour_2_3_12 - 13 s_hour_2_3_13
 - 14 s_hour_2_3_14 - 15 s_hour_2_3_15 - 16 s_hour_2_3_16 - 17 s_hour_2_3_17
 - 18 s_hour_2_3_18 - 19 s_hour_2_3_19 - 20 s_hour_2_3_20 - 21 s_hour_2_3_21
 + startingtime_3 = 0
calculate_start_time_for_order_4: - s_hour_1_4_01 - 2 s_hour_1_4_02
 - 3 s_hour_1_4_03 - 4 s_hour_1_4_04 - 5 s_hour_1_4_05 - 6 s_hour_1_4_06
 - 7 s_hour_1_4_07 - 8 s_hour_1_4_08 - 9 s_hour_1_4_09 - 10 s_hour_1_4_10
 - 11 s_hour_1_4_11 - 12 s_hour_1_4_12 - 13 s_hour_1_4_13 - 14 s_hour_1_4_14
 - 15 s_hour_1_4_15 - 16 s_hour_1_4_16 - 17 s_hour_1_4_17 - 18 s_hour_1_4_18
 - 19 s_hour_1_4_19 - 20 s_hour_1_4_20 - 21 s_hour_1_4_21 - 22 s_hour_1_4_22
 - 23 s_hour_1_4_23 - s_hour_2_4_01 - 2 s_hour_2_4_02 - 3 s_hour_2_4_03
 - 4 s_hour_2_4_04 - 5 s_hour_2_4_05 - 6 s_hour_2_4_06 - 7 s_hour_2_4_07
 - 8 s_hour_2_4_08 - 9 s_hour_2_4_09 - 10 s_hour_2_4_10 - 11 s_hour_2_4_11
 - 12 s_hour_2_4_12 - 13 s_hour_2_4_13 - 14 s_hour_2_4_14 - 15 s_hour_2_4_15
 - 16 s_hour_2_4_16 - 17 s_hour_2_4_17 - 18 s_hour_2_4_18 - 19 s_hour_2_4_19
 - 20 s_hour_2_4_20 - 21 s_hour_2_4_21 - 22 s_hour_2_4_22 - 23 s_hour_2_4_23
 + startingtime_4 = 0
sum(s_hour_0_0)==x_00: s_hour_0_0_00 + s_hour_0_0_01 + s_hour_0_0_02
 + s_hour_0_0_03 + s_hour_0_0_04 + s_hour_0_0_05 + s_hour_0_0_06
 + s_hour_0_0_07 + s_hour_0_0_08 + s_hour_0_0_09 + s_hour_0_0_10
 + s_hour_0_0_11 + s_hour_0_0_12 + s_hour_0_0_13 + s_hour_0_0_14
 + s_hour_0_0_15 + s_hour_0_0_16 + s_hour_0_0_17 + s_hour_0_0_18
 + s_hour_0_0_19 + s_hour_0_0_20 + s_hour_0_0_21 + s_hour_0_0_22 - x_(0,_0)
 = 0
sum(s_hour_0_1)==x_01: s_hour_0_1_00 + s_hour_0_1_01 + s_hour_0_1_02
 + s_hour_0_1_03 + s_hour_0_1_04 + s_hour_0_1_05 + s_hour_0_1_06
 + s_hour_0_1_07 + s_hour_0_1_08 + s_hour_0_1_09 + s_hour_0_1_10
 + s_hour_0_1_11 + s_hour_0_1_12 + s_hour_0_1_13 + s_hour_0_1_14
 + s_hour_0_1_15 + s_hour_0_1_16 + s_hour_0_1_17 + s_hour_0_1_18
 + s_hour_0_1_19 + s_hour_0_1_20 - x_(0,_1) = 0
sum(s_hour_1_2)==x_12: s_hour_1_2_00 + s_hour_1_2_01 + s_hour_1_2_02
 + s_hour_1_2_03 + s_hour_1_2_04 + s_hour_1_2_05 + s_hour_1_2_06
 + s_hour_1_2_07 + s_hour_1_2_08 + s_hour_1_2_09 + s_hour_1_2_10
 + s_hour_1_2_11 + s_hour_1_2_12 + s_hour_1_2_13 + s_hour_1_2_14
 + s_hour_1_2_15 + s_hour_1_2_16 + s_hour_1_2_17 + s_hour_1_2_18
 + s_hour_1_2_19 - x_(1,_2) = 0
sum(s_hour_1_3)==x_13: s_hour_1_3_00 + s_hour_1_3_01 + s_hour_1_3_02
 + s_hour_1_3_03 + s_hour_1_3_04 + s_hour_1_3_05 + s_hour_1_3_06
 + s_hour_1_3_07 + s_hour_1_3_08 + s_hour_1_3_09 + s_hour_1_3_10
 + s_hour_1_3_11 + s_hour_1_3_12 + s_hour_1_3_13 + s_hour_1_3_14
 + s_hour_1_3_15 + s_hour_1_3_16 + s_hour_1_3_17 + s_hour_1_3_18
 + s_hour_1_3_19 + s_hour_1_3_20 + s_hour_1_3_21 - x_(1,_3) = 0
sum(s_hour_1_4)==x_14: s_hour_1_4_00 + s_hour_1_4_01 + s_hour_1_4_02
 + s_hour_1_4_03 + s_hour_1_4_04 + s_hour_1_4_05 + s_hour_1_4_06
 + s_hour_1_4_07 + s_hour_1_4_08 + s_hour_1_4_09 + s_hour_1_4_10
 + s_hour_1_4_11 + s_hour_1_4_12 + s_hour_1_4_13 + s_hour_1_4_14
 + s_hour_1_4_15 + s_hour_1_4_16 + s_hour_1_4_17 + s_hour_1_4_18
 + s_hour_1_4_19 + s_hour_1_4_20 + s_hour_1_4_21 + s_hour_1_4_22
 + s_hour_1_4_23 - x_(1,_4) = 0
sum(s_hour_2_2)==x_22: s_hour_2_2_00 + s_hour_2_2_01 + s_hour_2_2_02
 + s_hour_2_2_03 + s_hour_2_2_04 + s_hour_2_2_05 + s_hour_2_2_06
 + s_hour_2_2_07 + s_hour_2_2_08 + s_hour_2_2_09 + s_hour_2_2_10
 + s_hour_2_2_11 + s_hour_2_2_12 + s_hour_2_2_13 + s_hour_2_2_14
 + s_hour_2_2_15 + s_hour_2_2_16 + s_hour_2_2_17 + s_hour_2_2_18
 + s_hour_2_2_19 - x_(2,_2) = 0
sum(s_hour_2_3)==x_23: s_hour_2_3_00 + s_hour_2_3_01 + s_hour_2_3_02
 + s_hour_2_3_03 + s_hour_2_3_04 + s_hour_2_3_05 + s_hour_2_3_06
 + s_hour_2_3_07 + s_hour_2_3_08 + s_hour_2_3_09 + s_hour_2_3_10
 + s_hour_2_3_11 + s_hour_2_3_12 + s_hour_2_3_13 + s_hour_2_3_14
 + s_hour_2_3_15 + s_hour_2_3_16 + s_hour_2_3_17 + s_hour_2_3_18
 + s_hour_2_3_19 + s_hour_2_3_20 + s_hour_2_3_21 - x_(2,_3) = 0
sum(s_hour_2_4)==x_24: s_hour_2_4_00 + s_hour_2_4_01 + s_hour_2_4_02
 + s_hour_2_4_03 + s_hour_2_4_04 + s_hour_2_4_05 + s_hour_2_4_06
 + s_hour_2_4_07 + s_hour_2_4_08 + s_hour_2_4_09 + s_hour_2_4_10
 + s_hour_2_4_11 + s_hour_2_4_12 + s_hour_2_4_13 + s_hour_2_4_14
 + s_hour_2_4_15 + s_hour_2_4_16 + s_hour_2_4_17 + s_hour_2_4_18
 + s_hour_2_4_19 + s_hour_2_4_20 + s_hour_2_4_21 + s_hour_2_4_22
 + s_hour_2_4_23 - x_(2,_4) = 0
sum(x_f0)<=1: x_(0,_0) <= 1
sum(x_f1)<=1: x_(0,_1) <= 1
sum(x_f2)<=1: x_(1,_2) + x_(2,_2) <= 1
sum(x_f3)<=1: x_(1,_3) + x_(2,_3) <= 1
sum(x_f4)<=1: x_(1,_4) + x_(2,_4) <= 1
Bounds
 0 <= startingtime_0 <= 23
 0 <= startingtime_1 <= 23
 0 <= startingtime_2 <= 23
 0 <= startingtime_3 <= 23
 0 <= startingtime_4 <= 23
Generals
startingtime_0
startingtime_1
startingtime_2
startingtime_3
startingtime_4
Binaries
p_(0,_0,_1)
p_(0,_1,_0)
p_(1,_2,_3)
p_(1,_2,_4)
p_(1,_3,_2)
p_(1,_3,_4)
p_(1,_4,_2)
p_(1,_4,_3)
p_(2,_2,_3)
p_(2,_2,_4)
p_(2,_3,_2)
p_(2,_3,_4)
p_(2,_4,_2)
p_(2,_4,_3)
q_(0,_0,_1)
q_(0,_1,_0)
q_(1,_2,_3)
q_(1,_2,_4)
q_(1,_3,_2)
q_(1,_3,_4)
q_(1,_4,_2)
q_(1,_4,_3)
q_(2,_2,_3)
q_(2,_2,_4)
q_(2,_3,_2)
q_(2,_3,_4)
q_(2,_4,_2)
q_(2,_4,_3)
s_hour_0_0_00
s_hour_0_0_01
s_hour_0_0_02
s_hour_0_0_03
s_hour_0_0_04
s_hour_0_0_05
s_hour_0_0_06
s_hour_0_0_07
s_hour_0_0_08
s_hour_0_0_09
s_hour_0_0_10
s_hour_0_0_11
s_hour_0_0_12
s_hour_0_0_13
s_hour_0_0_14
s_hour_0_0_15
s_hour_0_0_16
s_hour_0_0_17
s_hour_0_0_18
s_hour_0_0_19
s_hour_0_0_20
s_hour_0_0_21
s_hour_0_0_22
s_hour_0_1_00
s_hour_0_1_01
s_hour_0_1_02
s_hour_0_1_03
s_hour_0_1_04
s_hour_0_1_05
s_hour_0_1_06
s_hour_0_1_07
s_hour_0_1_08
s_hour_0_1_09
s_hour_0_1_10
s_hour_0_1_11
s_hour_0_1_12
s_hour_0_1_13
s_hour_0_1_14
s_hour_0_1_15
s_hour_0_1_16
s_hour_0_1_17
s_hour_0_1_18
s_hour_0_1_19
s_hour_0_1_20
s_hour_1_2_00
s_hour_1_2_01
s_hour_1_2_02
s_hour_1_2_03
s_hour_1_2_04
s_hour_1_2_05
s_hour_1_2_06
s_hour_1_2_07
s_hour_1_2_08
s_hour_1_2_09
s_hour_1_2_10
s_hour_1_2_11
s_hour_1_2_12
s_hour_1_2_13
s_hour_1_2_14
s_hour_1_2_15
s_hour_1_2_16
s_hour_1_2_17
s_hour_1_2_18
s_hour_1_2_19
s_hour_1_3_00
s_hour_1_3_01
s_hour_1_3_02
s_hour_1_3_03
s_hour_1_3_04
s_hour_1_3_05
s_hour_1_3_06
s_hour_1_3_07
s_hour_1_3_08
s_hour_1_3_09
s_hour_1_3_10
s_hour_1_3_11
s_hour_1_3_12
s_hour_1_3_13
s_hour_1_3_14
s_hour_1_3_15
s_hour_1_3_16
s_hour_1_3_17
s_hour_1_3_18
s_hour_1_3_19
s_hour_1_3_20
s_hour_1_3_21
s_hour_1_4_00
s_hour_1_4_01
s_hour_1_4_02
s_hour_1_4_03
s_hour_1_4_04
s_hour_1_4_05
s_hour_1_4_06
s_hour_1_4_07
s_hour_1_4_08
s_hour_1_4_09
s_hour_1_4_10
s_hour_1_4_11
s_hour_1_4_12
s_hour_1_4_13
s_hour_1_4_14
s_hour_1_4_15
s_hour_1_4_16
s_hour_1_4_17
s_hour_1_4_18
s_hour_1_4_19
s_hour_1_4_20
s_hour_1_4_21
s_hour_1_4_22
s_hour_1_4_23
s_hour_2_2_00
s_hour_2_2_01
s_hour_2_2_02
s_hour_2_2_03
s_hour_2_2_04
s_hour_2_2_05
s_hour_2_2_06
s_hour_2_2_07
s_hour_2_2_08
s_hour_2_2_09
s_hour_2_2_10
s_hour_2_2_11
s_hour_2_2_12
s_hour_2_2_13
s_hour_2_2_14
s_hour_2_2_15
s_hour_2_2_16
s_hour_2_2_17
s_hour_2_2_18
s_hour_2_2_19
s_hour_2_3_00
s_hour_2_3_01
s_hour_2_3_02
s_hour_2_3_03
s_hour_2_3_04
s_hour_2_3_05
s_hour_2_3_06
s_hour_2_3_07
s_hour_2_3_08
s_hour_2_3_09
s_hour_2_3_10
s_hour_2_3_11
s_hour_2_3_12
s_hour_2_3_13
s_hour_2_3_14
s_hour_2_3_15
s_hour_2_3_16
s_hour_2_3_17
s_hour_2_3_18
s_hour_2_3_19
s_hour_2_3_20
s_hour_2_3_21
s_hour_2_4_00
s_hour_2_4_01
s_hour_2_4_02
s_hour_2_4_03
s_hour_2_4_04
s_hour_2_4_05
s_hour_2_4_06
s_hour_2_4_07
s_hour_2_4_08
s_hour_2_4_09
s_hour_2_4_10
s_hour_2_4_11
s_hour_2_4_12
s_hour_2_4_13
s_hour_2_4_14
s_hour_2_4_15
s_hour_2_4_16
s_hour_2_4_17
s_hour_2_4_18
s_hour_2_4_19
s_hour_2_4_20
s_hour_2_4_21
s_hour_2_4_22
s_hour_2_4_23
x_(0,_0)
x_(0,_1)
x_(1,_2)
x_(1,_3)
x_(1,_4)
x_(2,_2)
x_(2,_3)
x_(2,_4)
End
